id: 1356
name: van
group: miplib2010
method: 2

Gurobi 7.0.2 (linux64, Matlab) logging started Mon Mar 26 10:24:04 2018


Gurobi 7.0.2 (linux64) logging started Mon Mar 26 10:24:04 2018

Optimize a model with 27331 rows, 12481 columns and 487296 nonzeros
Coefficient statistics:
  Matrix range     [1e+00, 2e+02]
  Objective range  [2e-01, 5e-01]
  Bounds range     [1e+00, 1e+00]
  RHS range        [1e+00, 2e+02]
Presolve removed 5315 rows and 5121 columns
Presolve time: 0.11s
Presolved: 22016 rows, 7360 columns, 481408 nonzeros

Ordering time: 0.25s

Barrier statistics:
 AA' NZ     : 8.686e+06
 Factor NZ  : 2.697e+07 (roughly 230 MBytes of memory)
 Factor Ops : 4.862e+10 (less than 1 second per iteration)
 Threads    : 4

                  Objective                Residual
Iter       Primal          Dual         Primal    Dual     Compl     Time
   0   6.41744110e+01  0.00000000e+00  4.19e+01 0.00e+00  7.63e-02     2s
   1   5.45589118e+01 -1.32026715e+02  1.08e+01 4.79e-03  1.35e-02     2s
   2   9.02479148e+00 -3.24054335e+01  1.58e-14 2.93e-04  1.23e-03     3s
   3   3.56063740e+00 -2.38030491e-01  5.44e-15 3.10e-06  1.08e-04     4s
   4   2.16371615e+00  4.97824378e-01  4.66e-15 5.55e-16  4.78e-05     4s
   5   1.77548060e+00  1.22870757e+00  4.66e-15 5.00e-16  1.57e-05     5s
   6   1.72703407e+00  1.70998067e+00  6.88e-15 8.33e-16  4.68e-07     6s
   7   1.72353109e+00  1.72350220e+00  4.70e-14 5.55e-16  7.90e-10     6s
   8   1.72352014e+00  1.72352011e+00  5.98e-14 7.77e-16  7.90e-13     7s
   9   1.72352013e+00  1.72352013e+00  1.05e-11 1.05e-15  5.94e-16     7s

Barrier solved model in 9 iterations and 7.44 seconds
Optimal objective 1.72352013e+00

Crossover log...

      64 DPushes remaining with DInf 0.0000000e+00                 8s
       0 DPushes remaining with DInf 9.9070058e-15                 8s

       0 PPushes remaining with PInf 0.0000000e+00                 8s

  Push phase complete: Pinf 0.0000000e+00, Dinf 9.9070058e-15      8s

Iteration    Objective       Primal Inf.    Dual Inf.      Time
      67    1.7235201e+00   0.000000e+00   0.000000e+00      8s
      67    1.7235201e+00   0.000000e+00   0.000000e+00      8s

Solved in 67 iterations and 7.59 seconds
Optimal objective  1.723520132e+00
status: OPTIMAL
